(declare-const c_0 Real)
(declare-const c_1 Real)
(declare-const c_2 Real)
(declare-const c_3 Real)
(declare-const c_4 Real)
(declare-const c_5 Real)
(declare-const c_6 Real)
(declare-const c_7 Real)
(declare-const c_8 Real)
(declare-const c_9 Real)
(declare-const c_10 Real)
(declare-const c_11 Real)
(declare-const c_12 Real)
(declare-const c_13 Real)
(declare-const c_14 Real)
(declare-const c_15 Real)
(declare-const c_16 Real)
(declare-const c_17 Real)
(declare-const c_18 Real)
(declare-const c_19 Real)
(declare-const c_20 Real)
(declare-const c_21 Real)
(declare-const c_22 Real)
(declare-const c_23 Real)
(declare-const c_24 Real)
(declare-const c_25 Real)
(declare-const c_26 Real)
(declare-const c_27 Real)
(declare-const c_28 Real)
(declare-const c_29 Real)
(declare-const c_30 Real)
(declare-const c_31 Real)
(declare-const c_32 Real)
(declare-const c_33 Real)
(declare-const c_34 Real)
(declare-const c_35 Real)
(declare-const c_36 Real)
(declare-const c_37 Real)
(declare-const c_38 Real)
(declare-const c_39 Real)
(declare-const c_40 Real)
(declare-const c_41 Real)
(declare-const c_42 Real)
(declare-const c_43 Real)
(declare-const c_44 Real)
(declare-const c_45 Real)
(declare-const c_46 Real)
(declare-const c_47 Real)
(declare-const c_48 Real)
(declare-const c_49 Real)
(declare-const c_50 Real)
(declare-const c_51 Real)
(declare-const c_52 Real)
(declare-const c_53 Real)
(declare-const c_54 Real)
(declare-const c_55 Real)
(declare-const c_56 Real)
(declare-const c_57 Real)
(declare-const c_58 Real)
(declare-const c_59 Real)
(declare-const c_60 Real)
(declare-const c_61 Real)
(declare-const c_62 Real)
(declare-const s_0 Real)
(declare-const s_1 Real)
(declare-const s_2 Real)
(declare-const s_3 Real)
(declare-const s_4 Real)
(declare-const s_5 Real)
(declare-const s_6 Real)
(declare-const s_7 Real)
(declare-const s_8 Real)
(declare-const s_9 Real)
(declare-const s_10 Real)
(declare-const s_11 Real)
(declare-const s_12 Real)
(declare-const s_13 Real)
(declare-const s_14 Real)
(declare-const s_15 Real)
(declare-const s_16 Real)
(declare-const s_17 Real)
(declare-const s_18 Real)
(declare-const s_19 Real)
(declare-const s_20 Real)
(declare-const s_21 Real)
(declare-const s_22 Real)
(declare-const s_23 Real)
(declare-const s_24 Real)
(declare-const s_25 Real)
(declare-const s_26 Real)
(declare-const s_27 Real)
(declare-const s_28 Real)
(declare-const s_29 Real)
(declare-const s_30 Real)
(declare-const s_31 Real)
(declare-const s_32 Real)
(declare-const s_33 Real)
(declare-const s_34 Real)
(declare-const s_35 Real)
(declare-const s_36 Real)
(declare-const s_37 Real)
(declare-const s_38 Real)
(declare-const s_39 Real)
(declare-const s_40 Real)
(declare-const s_41 Real)
(declare-const s_42 Real)
(declare-const s_43 Real)
(declare-const s_44 Real)
(declare-const s_45 Real)
(declare-const s_46 Real)
(declare-const s_47 Real)
(declare-const s_48 Real)
(declare-const s_49 Real)
(declare-const s_50 Real)
(declare-const s_51 Real)
(declare-const s_52 Real)
(declare-const s_53 Real)
(declare-const s_54 Real)
(declare-const s_55 Real)
(declare-const s_56 Real)
(declare-const s_57 Real)
(declare-const s_58 Real)
(declare-const s_59 Real)
(declare-const s_60 Real)
(declare-const s_61 Real)
(declare-const s_62 Real)
(assert (forall ((flag Real) (c Real) (x Real) (y Real) (z Real) ) (=> (and (>= (+ (* 1024 1) (* 1 flag ) ) 0) (>= (+ (* 1023 1) (* (- 1) flag ) ) 0) (>= (+ (* 1024 1) (* 1 c ) ) 0) (>= (+ (* 1023 1) (* (- 1) c ) ) 0) (>= (+ (* 1024 1) (* 1 x ) ) 0) (>= (+ (* 1023 1) (* (- 1) x ) ) 0) (>= (+ (* 1024 1) (* 1 y ) ) 0) (>= (+ (* 1023 1) (* (- 1) y ) ) 0) (>= (+ (* 1024 1) (* 1 z ) ) 0) (>= (+ (* 1023 1) (* (- 1) z ) ) 0) ) (>= (+ (* 1 c flag s_2 ) (* 1 c s_1 ) (* 1 c s_3 x ) (* 1 c s_4 y ) (* 1 c s_5 z ) (* 1 c c s_6 ) (* 1 flag s_10 z ) (* 1 flag s_7 ) (* 1 flag s_8 x ) (* 1 flag s_9 y ) (* 1 flag flag s_11 ) (* 1 s_0 ) (* 1 s_12 x ) (* 1 s_13 x y ) (* 1 s_14 x z ) (* 1 s_15 x x ) (* 1 s_16 y ) (* 1 s_17 y z ) (* 1 s_18 y y ) (* 1 s_19 z ) (* 1 s_20 z z ) ) 0) )))
(assert (forall ((flag Real) (c Real) (x Real) (y Real) (z Real) ) (=> (and (>= (+ (* 1024 1) (* 1 flag ) ) 0) (>= (+ (* 1023 1) (* (- 1) flag ) ) 0) (>= (+ (* 1024 1) (* 1 c ) ) 0) (>= (+ (* 1023 1) (* (- 1) c ) ) 0) (>= (+ (* 1024 1) (* 1 x ) ) 0) (>= (+ (* 1023 1) (* (- 1) x ) ) 0) (>= (+ (* 1024 1) (* 1 y ) ) 0) (>= (+ (* 1023 1) (* (- 1) y ) ) 0) (>= (+ (* 1024 1) (* 1 z ) ) 0) (>= (+ (* 1023 1) (* (- 1) z ) ) 0) ) (>= (+ (* 1 c c_1 ) (* 1 c c_2 flag ) (* 1 c c_3 x ) (* 1 c c_4 y ) (* 1 c c_5 z ) (* 1 c c c_6 ) (* 1 c_0 ) (* 1 c_10 flag z ) (* 1 c_11 flag flag ) (* 1 c_12 x ) (* 1 c_13 x y ) (* 1 c_14 x z ) (* 1 c_15 x x ) (* 1 c_16 y ) (* 1 c_17 y z ) (* 1 c_18 y y ) (* 1 c_19 z ) (* 1 c_20 z z ) (* 1 c_7 flag ) (* 1 c_8 flag x ) (* 1 c_9 flag y ) ) 0) )))
(assert (forall ((flag Real) (c Real) (x Real) (y Real) (z Real) ) (=> (and (>= (+ (* 1023 1) (* (- 1) z ) ) 0) (>= (+ (* 1024 1) (* 1 z ) ) 0) (>= (+ (* 1023 1) (* (- 1) y ) ) 0) (>= (+ (* 1024 1) (* 1 y ) ) 0) (>= (+ (* 1023 1) (* (- 1) x ) ) 0) (>= (+ (* 1024 1) (* 1 x ) ) 0) (>= (+ (* 1023 1) (* (- 1) c ) ) 0) (>= (+ (* 1024 1) (* 1 c ) ) 0) (>= (+ (* 1023 1) (* (- 1) flag ) ) 0) (>= (+ (* 1024 1) (* 1 flag ) ) 0) (>= (+ (* 1 c flag s_2 ) (* 1 c s_1 ) (* 1 c s_3 x ) (* 1 c s_4 y ) (* 1 c s_5 z ) (* 1 c c s_6 ) (* 1 flag s_10 z ) (* 1 flag s_7 ) (* 1 flag s_8 x ) (* 1 flag s_9 y ) (* 1 flag flag s_11 ) (* 1 s_0 ) (* 1 s_12 x ) (* 1 s_13 x y ) (* 1 s_14 x z ) (* 1 s_15 x x ) (* 1 s_16 y ) (* 1 s_17 y z ) (* 1 s_18 y y ) (* 1 s_19 z ) (* 1 s_20 z z ) ) 0) ) (>= (+ (* 1 s_21 ) (* 1 s_28 ) (* 1 s_29 x ) (* 1 s_30 y ) (* 1 s_31 z ) (* 1 s_32 ) (* 1 s_33 x ) (* 1 s_34 x y ) (* 1 s_35 x z ) (* 1 s_36 x x ) (* 1 s_37 y ) (* 1 s_38 y z ) (* 1 s_39 y y ) (* 1 s_40 z ) (* 1 s_41 z z ) ) 0) )))
(assert (forall ((flag Real) (c Real) (x Real) (y Real) (z Real) ) (=> (and (>= (+ (* 1023 1) (* (- 1) z ) ) 0) (>= (+ (* 1024 1) (* 1 z ) ) 0) (>= (+ (* 1023 1) (* (- 1) y ) ) 0) (>= (+ (* 1024 1) (* 1 y ) ) 0) (>= (+ (* 1023 1) (* (- 1) x ) ) 0) (>= (+ (* 1024 1) (* 1 x ) ) 0) (>= (+ (* 1023 1) (* (- 1) c ) ) 0) (>= (+ (* 1024 1) (* 1 c ) ) 0) (>= (+ (* 1023 1) (* (- 1) flag ) ) 0) (>= (+ (* 1024 1) (* 1 flag ) ) 0) (>= (+ (* 1 c flag s_2 ) (* 1 c s_1 ) (* 1 c s_3 x ) (* 1 c s_4 y ) (* 1 c s_5 z ) (* 1 c c s_6 ) (* 1 flag s_10 z ) (* 1 flag s_7 ) (* 1 flag s_8 x ) (* 1 flag s_9 y ) (* 1 flag flag s_11 ) (* 1 s_0 ) (* 1 s_12 x ) (* 1 s_13 x y ) (* 1 s_14 x z ) (* 1 s_15 x x ) (* 1 s_16 y ) (* 1 s_17 y z ) (* 1 s_18 y y ) (* 1 s_19 z ) (* 1 s_20 z z ) ) 0) ) (>= (+ (* 1 c_21 ) (* 1 c_28 ) (* 1 c_29 x ) (* 1 c_30 y ) (* 1 c_31 z ) (* 1 c_32 ) (* 1 c_33 x ) (* 1 c_34 x y ) (* 1 c_35 x z ) (* 1 c_36 x x ) (* 1 c_37 y ) (* 1 c_38 y z ) (* 1 c_39 y y ) (* 1 c_40 z ) (* 1 c_41 z z ) ) 0) )))
(assert (forall ((flag Real) (c Real) (x Real) (y Real) (z Real) ) (=> (and (>= (+ (* 1023 1) (* (- 1) z ) ) 0) (>= (+ (* 1024 1) (* 1 z ) ) 0) (>= (+ (* 1023 1) (* (- 1) y ) ) 0) (>= (+ (* 1024 1) (* 1 y ) ) 0) (>= (+ (* 1023 1) (* (- 1) x ) ) 0) (>= (+ (* 1024 1) (* 1 x ) ) 0) (>= (+ (* 1023 1) (* (- 1) c ) ) 0) (>= (+ (* 1024 1) (* 1 c ) ) 0) (>= (+ (* 1023 1) (* (- 1) flag ) ) 0) (>= (+ (* 1024 1) (* 1 flag ) ) 0) (>= (+ (* 1 c flag s_2 ) (* 1 c s_1 ) (* 1 c s_3 x ) (* 1 c s_4 y ) (* 1 c s_5 z ) (* 1 c c s_6 ) (* 1 flag s_10 z ) (* 1 flag s_7 ) (* 1 flag s_8 x ) (* 1 flag s_9 y ) (* 1 flag flag s_11 ) (* 1 s_0 ) (* 1 s_12 x ) (* 1 s_13 x y ) (* 1 s_14 x z ) (* 1 s_15 x x ) (* 1 s_16 y ) (* 1 s_17 y z ) (* 1 s_18 y y ) (* 1 s_19 z ) (* 1 s_20 z z ) ) 0) ) (>= (+ (* (- 1) 1) (* 1 c c_1 ) (* 1 c c_2 flag ) (* 1 c c_3 x ) (* 1 c c_4 y ) (* 1 c c_5 z ) (* 1 c c c_6 ) (* 1 c_0 ) (* 1 c_10 flag z ) (* 1 c_11 flag flag ) (* 1 c_12 x ) (* 1 c_13 x y ) (* 1 c_14 x z ) (* 1 c_15 x x ) (* 1 c_16 y ) (* 1 c_17 y z ) (* 1 c_18 y y ) (* 1 c_19 z ) (* 1 c_20 z z ) (* (- 1) c_21 ) (* (- 1) c_28 ) (* (- 1) c_29 x ) (* (- 1) c_30 y ) (* (- 1) c_31 z ) (* (- 1) c_32 ) (* (- 1) c_33 x ) (* (- 1) c_34 x y ) (* (- 1) c_35 x z ) (* (- 1) c_36 x x ) (* (- 1) c_37 y ) (* (- 1) c_38 y z ) (* (- 1) c_39 y y ) (* (- 1) c_40 z ) (* (- 1) c_41 z z ) (* 1 c_7 flag ) (* 1 c_8 flag x ) (* 1 c_9 flag y ) ) 0) )))
(assert (forall ((flag Real) (c Real) (x Real) (y Real) (z Real) ) (=> (and (>= (+ (* (- 1) 1) (* 1 y ) ) 0) (>= (+ (* (- 2) 1) (* 1 x ) ) 0) (>= (+ (* (- 1) 1) (* (- 1) y ) (* 1 z ) ) 0) (>= (+ (* (- 1) 1) (* 1 flag ) ) 0) (>= (+ (* 1023 1) (* (- 1) z ) ) 0) (>= (+ (* 1 1) (* (- 1) flag ) ) 0) (>= (+ (* 1023 1) (* (- 1) x ) ) 0) (>= (+ (* 1024 1) (* 1 x ) ) 0) (>= (+ (* (- 1) 1) (* 1 c ) (* 1 flag ) ) 0) (>= (+ (* 1 c flag s_23 ) (* 1 c s_22 ) (* 1 c s_24 x ) (* 1 c s_25 y ) (* 1 c s_26 z ) (* 1 c c s_27 ) (* 1 flag s_28 ) (* 1 flag s_29 x ) (* 1 flag s_30 y ) (* 1 flag s_31 z ) (* 1 flag flag s_32 ) (* 1 s_21 ) (* 1 s_33 x ) (* 1 s_34 x y ) (* 1 s_35 x z ) (* 1 s_36 x x ) (* 1 s_37 y ) (* 1 s_38 y z ) (* 1 s_39 y y ) (* 1 s_40 z ) (* 1 s_41 z z ) ) 0) ) (>= (+ (* 1 c flag s_23 ) (* 1 c s_22 ) (* 1 c s_24 x ) (* 1 c s_25 x y ) (* 1 c s_26 z ) (* 2 c s_27 ) (* 1 c c s_27 ) (* 1 flag s_23 ) (* 1 flag s_28 ) (* 1 flag s_29 x ) (* 1 flag s_30 x y ) (* 1 flag s_31 z ) (* 1 flag flag s_32 ) (* 1 s_21 ) (* 1 s_22 ) (* 1 s_24 x ) (* 1 s_25 x y ) (* 1 s_26 z ) (* 1 s_27 ) (* 1 s_33 x ) (* 1 s_34 x x y ) (* 1 s_35 x z ) (* 1 s_36 x x ) (* 1 s_37 x y ) (* 1 s_38 x y z ) (* 1 s_39 x x y y ) (* 1 s_40 z ) (* 1 s_41 z z ) ) 0) )))
(assert (forall ((flag Real) (c Real) (x Real) (y Real) (z Real) ) (=> (and (>= (+ (* (- 1) 1) (* 1 y ) ) 0) (>= (+ (* (- 2) 1) (* 1 x ) ) 0) (>= (+ (* (- 1) 1) (* (- 1) y ) (* 1 z ) ) 0) (>= (+ (* (- 1) 1) (* 1 flag ) ) 0) (>= (+ (* 1023 1) (* (- 1) z ) ) 0) (>= (+ (* 1 1) (* (- 1) flag ) ) 0) (>= (+ (* 1023 1) (* (- 1) x ) ) 0) (>= (+ (* 1024 1) (* 1 x ) ) 0) (>= (+ (* (- 1) 1) (* 1 c ) (* 1 flag ) ) 0) (>= (+ (* 1 c flag s_23 ) (* 1 c s_22 ) (* 1 c s_24 x ) (* 1 c s_25 y ) (* 1 c s_26 z ) (* 1 c c s_27 ) (* 1 flag s_28 ) (* 1 flag s_29 x ) (* 1 flag s_30 y ) (* 1 flag s_31 z ) (* 1 flag flag s_32 ) (* 1 s_21 ) (* 1 s_33 x ) (* 1 s_34 x y ) (* 1 s_35 x z ) (* 1 s_36 x x ) (* 1 s_37 y ) (* 1 s_38 y z ) (* 1 s_39 y y ) (* 1 s_40 z ) (* 1 s_41 z z ) ) 0) ) (>= (+ (* 1 c c_22 ) (* 1 c c_23 flag ) (* 1 c c_24 x ) (* 1 c c_25 x y ) (* 1 c c_26 z ) (* 2 c c_27 ) (* 1 c c c_27 ) (* 1 c_21 ) (* 1 c_22 ) (* 1 c_23 flag ) (* 1 c_24 x ) (* 1 c_25 x y ) (* 1 c_26 z ) (* 1 c_27 ) (* 1 c_28 flag ) (* 1 c_29 flag x ) (* 1 c_30 flag x y ) (* 1 c_31 flag z ) (* 1 c_32 flag flag ) (* 1 c_33 x ) (* 1 c_34 x x y ) (* 1 c_35 x z ) (* 1 c_36 x x ) (* 1 c_37 x y ) (* 1 c_38 x y z ) (* 1 c_39 x x y y ) (* 1 c_40 z ) (* 1 c_41 z z ) ) 0) )))
(assert (forall ((flag Real) (c Real) (x Real) (y Real) (z Real) ) (=> (and (>= (+ (* (- 1) 1) (* 1 y ) ) 0) (>= (+ (* (- 2) 1) (* 1 x ) ) 0) (>= (+ (* (- 1) 1) (* (- 1) y ) (* 1 z ) ) 0) (>= (+ (* (- 1) 1) (* 1 flag ) ) 0) (>= (+ (* 1023 1) (* (- 1) z ) ) 0) (>= (+ (* 1 1) (* (- 1) flag ) ) 0) (>= (+ (* 1023 1) (* (- 1) x ) ) 0) (>= (+ (* 1024 1) (* 1 x ) ) 0) (>= (+ (* (- 1) 1) (* 1 c ) (* 1 flag ) ) 0) (>= (+ (* 1 c flag s_23 ) (* 1 c s_22 ) (* 1 c s_24 x ) (* 1 c s_25 y ) (* 1 c s_26 z ) (* 1 c c s_27 ) (* 1 flag s_28 ) (* 1 flag s_29 x ) (* 1 flag s_30 y ) (* 1 flag s_31 z ) (* 1 flag flag s_32 ) (* 1 s_21 ) (* 1 s_33 x ) (* 1 s_34 x y ) (* 1 s_35 x z ) (* 1 s_36 x x ) (* 1 s_37 y ) (* 1 s_38 y z ) (* 1 s_39 y y ) (* 1 s_40 z ) (* 1 s_41 z z ) ) 0) ) (>= (+ (* (- 1) 1) (* (- 1) c c_25 x y ) (* 1 c c_25 y ) (* (- 2) c c_27 ) (* (- 1) c_22 ) (* (- 1) c_23 flag ) (* (- 1) c_24 x ) (* (- 1) c_25 x y ) (* (- 1) c_26 z ) (* (- 1) c_27 ) (* (- 1) c_30 flag x y ) (* 1 c_30 flag y ) (* 1 c_34 x y ) (* (- 1) c_34 x x y ) (* (- 1) c_37 x y ) (* 1 c_37 y ) (* (- 1) c_38 x y z ) (* 1 c_38 y z ) (* (- 1) c_39 x x y y ) (* 1 c_39 y y ) ) 0) )))
(assert (forall ((flag Real) (c Real) (x Real) (y Real) (z Real) ) (=> (and (>= (+ (* (- 1) 1) (* 1 y ) ) 0) (>= (+ (* (- 2) 1) (* (- 1) x ) ) 0) (>= (* (- 1) y ) 0) (>= (+ (* (- 1) 1) (* (- 1) y ) (* 1 z ) ) 0) (>= (+ (* (- 1) 1) (* 1 flag ) ) 0) (>= (+ (* 1023 1) (* (- 1) z ) ) 0) (>= (+ (* 1 1) (* (- 1) flag ) ) 0) (>= (+ (* 1023 1) (* (- 1) x ) ) 0) (>= (+ (* 1024 1) (* 1 x ) ) 0) (>= (+ (* (- 1) 1) (* 1 c ) (* 1 flag ) ) 0) (>= (+ (* 1 c flag s_23 ) (* 1 c s_22 ) (* 1 c s_24 x ) (* 1 c s_25 y ) (* 1 c s_26 z ) (* 1 c c s_27 ) (* 1 flag s_28 ) (* 1 flag s_29 x ) (* 1 flag s_30 y ) (* 1 flag s_31 z ) (* 1 flag flag s_32 ) (* 1 s_21 ) (* 1 s_33 x ) (* 1 s_34 x y ) (* 1 s_35 x z ) (* 1 s_36 x x ) (* 1 s_37 y ) (* 1 s_38 y z ) (* 1 s_39 y y ) (* 1 s_40 z ) (* 1 s_41 z z ) ) 0) ) (>= (+ (* 1 c flag s_23 ) (* 1 c s_22 ) (* 1 c s_24 x ) (* (- 1) c s_25 x y ) (* 1 c s_26 z ) (* 2 c s_27 ) (* 1 c c s_27 ) (* 1 flag s_23 ) (* 1 flag s_28 ) (* 1 flag s_29 x ) (* (- 1) flag s_30 x y ) (* 1 flag s_31 z ) (* 1 flag flag s_32 ) (* 1 s_21 ) (* 1 s_22 ) (* 1 s_24 x ) (* (- 1) s_25 x y ) (* 1 s_26 z ) (* 1 s_27 ) (* 1 s_33 x ) (* (- 1) s_34 x x y ) (* 1 s_35 x z ) (* 1 s_36 x x ) (* (- 1) s_37 x y ) (* (- 1) s_38 x y z ) (* 1 s_39 x x y y ) (* 1 s_40 z ) (* 1 s_41 z z ) ) 0) )))
(assert (forall ((flag Real) (c Real) (x Real) (y Real) (z Real) ) (=> (and (>= (+ (* (- 1) 1) (* 1 y ) ) 0) (>= (+ (* (- 2) 1) (* (- 1) x ) ) 0) (>= (* (- 1) y ) 0) (>= (+ (* (- 1) 1) (* (- 1) y ) (* 1 z ) ) 0) (>= (+ (* (- 1) 1) (* 1 flag ) ) 0) (>= (+ (* 1023 1) (* (- 1) z ) ) 0) (>= (+ (* 1 1) (* (- 1) flag ) ) 0) (>= (+ (* 1023 1) (* (- 1) x ) ) 0) (>= (+ (* 1024 1) (* 1 x ) ) 0) (>= (+ (* (- 1) 1) (* 1 c ) (* 1 flag ) ) 0) (>= (+ (* 1 c flag s_23 ) (* 1 c s_22 ) (* 1 c s_24 x ) (* 1 c s_25 y ) (* 1 c s_26 z ) (* 1 c c s_27 ) (* 1 flag s_28 ) (* 1 flag s_29 x ) (* 1 flag s_30 y ) (* 1 flag s_31 z ) (* 1 flag flag s_32 ) (* 1 s_21 ) (* 1 s_33 x ) (* 1 s_34 x y ) (* 1 s_35 x z ) (* 1 s_36 x x ) (* 1 s_37 y ) (* 1 s_38 y z ) (* 1 s_39 y y ) (* 1 s_40 z ) (* 1 s_41 z z ) ) 0) ) (>= (+ (* 1 c c_22 ) (* 1 c c_23 flag ) (* 1 c c_24 x ) (* (- 1) c c_25 x y ) (* 1 c c_26 z ) (* 2 c c_27 ) (* 1 c c c_27 ) (* 1 c_21 ) (* 1 c_22 ) (* 1 c_23 flag ) (* 1 c_24 x ) (* (- 1) c_25 x y ) (* 1 c_26 z ) (* 1 c_27 ) (* 1 c_28 flag ) (* 1 c_29 flag x ) (* (- 1) c_30 flag x y ) (* 1 c_31 flag z ) (* 1 c_32 flag flag ) (* 1 c_33 x ) (* (- 1) c_34 x x y ) (* 1 c_35 x z ) (* 1 c_36 x x ) (* (- 1) c_37 x y ) (* (- 1) c_38 x y z ) (* 1 c_39 x x y y ) (* 1 c_40 z ) (* 1 c_41 z z ) ) 0) )))
(assert (forall ((flag Real) (c Real) (x Real) (y Real) (z Real) ) (=> (and (>= (+ (* (- 1) 1) (* 1 y ) ) 0) (>= (+ (* (- 2) 1) (* (- 1) x ) ) 0) (>= (* (- 1) y ) 0) (>= (+ (* (- 1) 1) (* (- 1) y ) (* 1 z ) ) 0) (>= (+ (* (- 1) 1) (* 1 flag ) ) 0) (>= (+ (* 1023 1) (* (- 1) z ) ) 0) (>= (+ (* 1 1) (* (- 1) flag ) ) 0) (>= (+ (* 1023 1) (* (- 1) x ) ) 0) (>= (+ (* 1024 1) (* 1 x ) ) 0) (>= (+ (* (- 1) 1) (* 1 c ) (* 1 flag ) ) 0) (>= (+ (* 1 c flag s_23 ) (* 1 c s_22 ) (* 1 c s_24 x ) (* 1 c s_25 y ) (* 1 c s_26 z ) (* 1 c c s_27 ) (* 1 flag s_28 ) (* 1 flag s_29 x ) (* 1 flag s_30 y ) (* 1 flag s_31 z ) (* 1 flag flag s_32 ) (* 1 s_21 ) (* 1 s_33 x ) (* 1 s_34 x y ) (* 1 s_35 x z ) (* 1 s_36 x x ) (* 1 s_37 y ) (* 1 s_38 y z ) (* 1 s_39 y y ) (* 1 s_40 z ) (* 1 s_41 z z ) ) 0) ) (>= (+ (* (- 1) 1) (* 1 c c_25 x y ) (* 1 c c_25 y ) (* (- 2) c c_27 ) (* (- 1) c_22 ) (* (- 1) c_23 flag ) (* (- 1) c_24 x ) (* 1 c_25 x y ) (* (- 1) c_26 z ) (* (- 1) c_27 ) (* 1 c_30 flag x y ) (* 1 c_30 flag y ) (* 1 c_34 x y ) (* 1 c_34 x x y ) (* 1 c_37 x y ) (* 1 c_37 y ) (* 1 c_38 x y z ) (* 1 c_38 y z ) (* (- 1) c_39 x x y y ) (* 1 c_39 y y ) ) 0) )))
(assert (forall ((flag Real) (c Real) (x Real) (y Real) (z Real) ) (=> (and (>= (* (- 1) y ) 0) (>= (+ (* (- 1) 1) (* (- 1) y ) (* 1 z ) ) 0) (>= (+ (* (- 1) 1) (* 1 flag ) ) 0) (>= (+ (* 1023 1) (* (- 1) z ) ) 0) (>= (+ (* 1 1) (* (- 1) flag ) ) 0) (>= (+ (* 1023 1) (* (- 1) x ) ) 0) (>= (+ (* 1024 1) (* 1 x ) ) 0) (>= (+ (* (- 1) 1) (* 1 c ) (* 1 flag ) ) 0) (>= (+ (* 1 c flag s_23 ) (* 1 c s_22 ) (* 1 c s_24 x ) (* 1 c s_25 y ) (* 1 c s_26 z ) (* 1 c c s_27 ) (* 1 flag s_28 ) (* 1 flag s_29 x ) (* 1 flag s_30 y ) (* 1 flag s_31 z ) (* 1 flag flag s_32 ) (* 1 s_21 ) (* 1 s_33 x ) (* 1 s_34 x y ) (* 1 s_35 x z ) (* 1 s_36 x x ) (* 1 s_37 y ) (* 1 s_38 y z ) (* 1 s_39 y y ) (* 1 s_40 z ) (* 1 s_41 z z ) ) 0) ) (>= (+ (* 1 c s_22 ) (* 1 c s_24 x ) (* 1 c s_25 y ) (* 1 c s_26 z ) (* 2 c s_27 ) (* 1 c c s_27 ) (* 1 s_21 ) (* 1 s_22 ) (* 1 s_24 x ) (* 1 s_25 y ) (* 1 s_26 z ) (* 1 s_27 ) (* 1 s_33 x ) (* 1 s_34 x y ) (* 1 s_35 x z ) (* 1 s_36 x x ) (* 1 s_37 y ) (* 1 s_38 y z ) (* 1 s_39 y y ) (* 1 s_40 z ) (* 1 s_41 z z ) ) 0) )))
(assert (forall ((flag Real) (c Real) (x Real) (y Real) (z Real) ) (=> (and (>= (* (- 1) y ) 0) (>= (+ (* (- 1) 1) (* (- 1) y ) (* 1 z ) ) 0) (>= (+ (* (- 1) 1) (* 1 flag ) ) 0) (>= (+ (* 1023 1) (* (- 1) z ) ) 0) (>= (+ (* 1 1) (* (- 1) flag ) ) 0) (>= (+ (* 1023 1) (* (- 1) x ) ) 0) (>= (+ (* 1024 1) (* 1 x ) ) 0) (>= (+ (* (- 1) 1) (* 1 c ) (* 1 flag ) ) 0) (>= (+ (* 1 c flag s_23 ) (* 1 c s_22 ) (* 1 c s_24 x ) (* 1 c s_25 y ) (* 1 c s_26 z ) (* 1 c c s_27 ) (* 1 flag s_28 ) (* 1 flag s_29 x ) (* 1 flag s_30 y ) (* 1 flag s_31 z ) (* 1 flag flag s_32 ) (* 1 s_21 ) (* 1 s_33 x ) (* 1 s_34 x y ) (* 1 s_35 x z ) (* 1 s_36 x x ) (* 1 s_37 y ) (* 1 s_38 y z ) (* 1 s_39 y y ) (* 1 s_40 z ) (* 1 s_41 z z ) ) 0) ) (>= (+ (* 1 c c_22 ) (* 1 c c_24 x ) (* 1 c c_25 y ) (* 1 c c_26 z ) (* 2 c c_27 ) (* 1 c c c_27 ) (* 1 c_21 ) (* 1 c_22 ) (* 1 c_24 x ) (* 1 c_25 y ) (* 1 c_26 z ) (* 1 c_27 ) (* 1 c_33 x ) (* 1 c_34 x y ) (* 1 c_35 x z ) (* 1 c_36 x x ) (* 1 c_37 y ) (* 1 c_38 y z ) (* 1 c_39 y y ) (* 1 c_40 z ) (* 1 c_41 z z ) ) 0) )))
(assert (forall ((flag Real) (c Real) (x Real) (y Real) (z Real) ) (=> (and (>= (* (- 1) y ) 0) (>= (+ (* (- 1) 1) (* (- 1) y ) (* 1 z ) ) 0) (>= (+ (* (- 1) 1) (* 1 flag ) ) 0) (>= (+ (* 1023 1) (* (- 1) z ) ) 0) (>= (+ (* 1 1) (* (- 1) flag ) ) 0) (>= (+ (* 1023 1) (* (- 1) x ) ) 0) (>= (+ (* 1024 1) (* 1 x ) ) 0) (>= (+ (* (- 1) 1) (* 1 c ) (* 1 flag ) ) 0) (>= (+ (* 1 c flag s_23 ) (* 1 c s_22 ) (* 1 c s_24 x ) (* 1 c s_25 y ) (* 1 c s_26 z ) (* 1 c c s_27 ) (* 1 flag s_28 ) (* 1 flag s_29 x ) (* 1 flag s_30 y ) (* 1 flag s_31 z ) (* 1 flag flag s_32 ) (* 1 s_21 ) (* 1 s_33 x ) (* 1 s_34 x y ) (* 1 s_35 x z ) (* 1 s_36 x x ) (* 1 s_37 y ) (* 1 s_38 y z ) (* 1 s_39 y y ) (* 1 s_40 z ) (* 1 s_41 z z ) ) 0) ) (>= (+ (* (- 1) 1) (* 1 c c_23 flag ) (* (- 2) c c_27 ) (* (- 1) c_22 ) (* (- 1) c_24 x ) (* (- 1) c_25 y ) (* (- 1) c_26 z ) (* (- 1) c_27 ) (* 1 c_28 flag ) (* 1 c_29 flag x ) (* 1 c_30 flag y ) (* 1 c_31 flag z ) (* 1 c_32 flag flag ) ) 0) )))
(assert (forall ((flag Real) (c Real) (x Real) (y Real) (z Real) ) (=> (and (>= (+ (* 1 1) (* 1 x ) ) 0) (>= (* (- 1) y ) 0) (>= (+ (* (- 1) 1) (* (- 1) y ) (* 1 z ) ) 0) (>= (+ (* (- 1) 1) (* 1 flag ) ) 0) (>= (+ (* 1023 1) (* (- 1) z ) ) 0) (>= (+ (* 1 1) (* (- 1) flag ) ) 0) (>= (+ (* 1023 1) (* (- 1) x ) ) 0) (>= (+ (* 1024 1) (* 1 x ) ) 0) (>= (+ (* (- 1) 1) (* 1 c ) (* 1 flag ) ) 0) (>= (+ (* 1 c flag s_23 ) (* 1 c s_22 ) (* 1 c s_24 x ) (* 1 c s_25 y ) (* 1 c s_26 z ) (* 1 c c s_27 ) (* 1 flag s_28 ) (* 1 flag s_29 x ) (* 1 flag s_30 y ) (* 1 flag s_31 z ) (* 1 flag flag s_32 ) (* 1 s_21 ) (* 1 s_33 x ) (* 1 s_34 x y ) (* 1 s_35 x z ) (* 1 s_36 x x ) (* 1 s_37 y ) (* 1 s_38 y z ) (* 1 s_39 y y ) (* 1 s_40 z ) (* 1 s_41 z z ) ) 0) ) (>= (+ (* 1 c s_22 ) (* 1 c s_24 x ) (* 1 c s_25 y ) (* 1 c s_26 z ) (* 2 c s_27 ) (* 1 c c s_27 ) (* 1 s_21 ) (* 1 s_22 ) (* 1 s_24 x ) (* 1 s_25 y ) (* 1 s_26 z ) (* 1 s_27 ) (* 1 s_33 x ) (* 1 s_34 x y ) (* 1 s_35 x z ) (* 1 s_36 x x ) (* 1 s_37 y ) (* 1 s_38 y z ) (* 1 s_39 y y ) (* 1 s_40 z ) (* 1 s_41 z z ) ) 0) )))
(assert (forall ((flag Real) (c Real) (x Real) (y Real) (z Real) ) (=> (and (>= (+ (* 1 1) (* 1 x ) ) 0) (>= (* (- 1) y ) 0) (>= (+ (* (- 1) 1) (* (- 1) y ) (* 1 z ) ) 0) (>= (+ (* (- 1) 1) (* 1 flag ) ) 0) (>= (+ (* 1023 1) (* (- 1) z ) ) 0) (>= (+ (* 1 1) (* (- 1) flag ) ) 0) (>= (+ (* 1023 1) (* (- 1) x ) ) 0) (>= (+ (* 1024 1) (* 1 x ) ) 0) (>= (+ (* (- 1) 1) (* 1 c ) (* 1 flag ) ) 0) (>= (+ (* 1 c flag s_23 ) (* 1 c s_22 ) (* 1 c s_24 x ) (* 1 c s_25 y ) (* 1 c s_26 z ) (* 1 c c s_27 ) (* 1 flag s_28 ) (* 1 flag s_29 x ) (* 1 flag s_30 y ) (* 1 flag s_31 z ) (* 1 flag flag s_32 ) (* 1 s_21 ) (* 1 s_33 x ) (* 1 s_34 x y ) (* 1 s_35 x z ) (* 1 s_36 x x ) (* 1 s_37 y ) (* 1 s_38 y z ) (* 1 s_39 y y ) (* 1 s_40 z ) (* 1 s_41 z z ) ) 0) ) (>= (+ (* 1 c c_22 ) (* 1 c c_24 x ) (* 1 c c_25 y ) (* 1 c c_26 z ) (* 2 c c_27 ) (* 1 c c c_27 ) (* 1 c_21 ) (* 1 c_22 ) (* 1 c_24 x ) (* 1 c_25 y ) (* 1 c_26 z ) (* 1 c_27 ) (* 1 c_33 x ) (* 1 c_34 x y ) (* 1 c_35 x z ) (* 1 c_36 x x ) (* 1 c_37 y ) (* 1 c_38 y z ) (* 1 c_39 y y ) (* 1 c_40 z ) (* 1 c_41 z z ) ) 0) )))
(assert (forall ((flag Real) (c Real) (x Real) (y Real) (z Real) ) (=> (and (>= (+ (* 1 1) (* 1 x ) ) 0) (>= (* (- 1) y ) 0) (>= (+ (* (- 1) 1) (* (- 1) y ) (* 1 z ) ) 0) (>= (+ (* (- 1) 1) (* 1 flag ) ) 0) (>= (+ (* 1023 1) (* (- 1) z ) ) 0) (>= (+ (* 1 1) (* (- 1) flag ) ) 0) (>= (+ (* 1023 1) (* (- 1) x ) ) 0) (>= (+ (* 1024 1) (* 1 x ) ) 0) (>= (+ (* (- 1) 1) (* 1 c ) (* 1 flag ) ) 0) (>= (+ (* 1 c flag s_23 ) (* 1 c s_22 ) (* 1 c s_24 x ) (* 1 c s_25 y ) (* 1 c s_26 z ) (* 1 c c s_27 ) (* 1 flag s_28 ) (* 1 flag s_29 x ) (* 1 flag s_30 y ) (* 1 flag s_31 z ) (* 1 flag flag s_32 ) (* 1 s_21 ) (* 1 s_33 x ) (* 1 s_34 x y ) (* 1 s_35 x z ) (* 1 s_36 x x ) (* 1 s_37 y ) (* 1 s_38 y z ) (* 1 s_39 y y ) (* 1 s_40 z ) (* 1 s_41 z z ) ) 0) ) (>= (+ (* (- 1) 1) (* 1 c c_23 flag ) (* (- 2) c c_27 ) (* (- 1) c_22 ) (* (- 1) c_24 x ) (* (- 1) c_25 y ) (* (- 1) c_26 z ) (* (- 1) c_27 ) (* 1 c_28 flag ) (* 1 c_29 flag x ) (* 1 c_30 flag y ) (* 1 c_31 flag z ) (* 1 c_32 flag flag ) ) 0) )))
(assert (forall ((flag Real) (c Real) (x Real) (y Real) (z Real) ) (=> (and (>= (+ (* (- 1) 1) (* 1 y ) ) 0) (>= (+ (* (- 2) 1) (* (- 1) x ) ) 0) (>= (+ (* 1 1) (* (- 1) x ) ) 0) (>= (+ (* (- 1) 1) (* (- 1) y ) (* 1 z ) ) 0) (>= (+ (* (- 1) 1) (* 1 flag ) ) 0) (>= (+ (* 1023 1) (* (- 1) z ) ) 0) (>= (+ (* 1 1) (* (- 1) flag ) ) 0) (>= (+ (* 1023 1) (* (- 1) x ) ) 0) (>= (+ (* 1024 1) (* 1 x ) ) 0) (>= (+ (* (- 1) 1) (* 1 c ) (* 1 flag ) ) 0) (>= (+ (* 1 c flag s_23 ) (* 1 c s_22 ) (* 1 c s_24 x ) (* 1 c s_25 y ) (* 1 c s_26 z ) (* 1 c c s_27 ) (* 1 flag s_28 ) (* 1 flag s_29 x ) (* 1 flag s_30 y ) (* 1 flag s_31 z ) (* 1 flag flag s_32 ) (* 1 s_21 ) (* 1 s_33 x ) (* 1 s_34 x y ) (* 1 s_35 x z ) (* 1 s_36 x x ) (* 1 s_37 y ) (* 1 s_38 y z ) (* 1 s_39 y y ) (* 1 s_40 z ) (* 1 s_41 z z ) ) 0) ) (>= (+ (* 1 c flag s_23 ) (* 1 c s_22 ) (* 1 c s_24 x ) (* (- 1) c s_25 x y ) (* 1 c s_26 z ) (* 2 c s_27 ) (* 1 c c s_27 ) (* 1 flag s_23 ) (* 1 flag s_28 ) (* 1 flag s_29 x ) (* (- 1) flag s_30 x y ) (* 1 flag s_31 z ) (* 1 flag flag s_32 ) (* 1 s_21 ) (* 1 s_22 ) (* 1 s_24 x ) (* (- 1) s_25 x y ) (* 1 s_26 z ) (* 1 s_27 ) (* 1 s_33 x ) (* (- 1) s_34 x x y ) (* 1 s_35 x z ) (* 1 s_36 x x ) (* (- 1) s_37 x y ) (* (- 1) s_38 x y z ) (* 1 s_39 x x y y ) (* 1 s_40 z ) (* 1 s_41 z z ) ) 0) )))
(assert (forall ((flag Real) (c Real) (x Real) (y Real) (z Real) ) (=> (and (>= (+ (* (- 1) 1) (* 1 y ) ) 0) (>= (+ (* (- 2) 1) (* (- 1) x ) ) 0) (>= (+ (* 1 1) (* (- 1) x ) ) 0) (>= (+ (* (- 1) 1) (* (- 1) y ) (* 1 z ) ) 0) (>= (+ (* (- 1) 1) (* 1 flag ) ) 0) (>= (+ (* 1023 1) (* (- 1) z ) ) 0) (>= (+ (* 1 1) (* (- 1) flag ) ) 0) (>= (+ (* 1023 1) (* (- 1) x ) ) 0) (>= (+ (* 1024 1) (* 1 x ) ) 0) (>= (+ (* (- 1) 1) (* 1 c ) (* 1 flag ) ) 0) (>= (+ (* 1 c flag s_23 ) (* 1 c s_22 ) (* 1 c s_24 x ) (* 1 c s_25 y ) (* 1 c s_26 z ) (* 1 c c s_27 ) (* 1 flag s_28 ) (* 1 flag s_29 x ) (* 1 flag s_30 y ) (* 1 flag s_31 z ) (* 1 flag flag s_32 ) (* 1 s_21 ) (* 1 s_33 x ) (* 1 s_34 x y ) (* 1 s_35 x z ) (* 1 s_36 x x ) (* 1 s_37 y ) (* 1 s_38 y z ) (* 1 s_39 y y ) (* 1 s_40 z ) (* 1 s_41 z z ) ) 0) ) (>= (+ (* 1 c c_22 ) (* 1 c c_23 flag ) (* 1 c c_24 x ) (* (- 1) c c_25 x y ) (* 1 c c_26 z ) (* 2 c c_27 ) (* 1 c c c_27 ) (* 1 c_21 ) (* 1 c_22 ) (* 1 c_23 flag ) (* 1 c_24 x ) (* (- 1) c_25 x y ) (* 1 c_26 z ) (* 1 c_27 ) (* 1 c_28 flag ) (* 1 c_29 flag x ) (* (- 1) c_30 flag x y ) (* 1 c_31 flag z ) (* 1 c_32 flag flag ) (* 1 c_33 x ) (* (- 1) c_34 x x y ) (* 1 c_35 x z ) (* 1 c_36 x x ) (* (- 1) c_37 x y ) (* (- 1) c_38 x y z ) (* 1 c_39 x x y y ) (* 1 c_40 z ) (* 1 c_41 z z ) ) 0) )))
(assert (forall ((flag Real) (c Real) (x Real) (y Real) (z Real) ) (=> (and (>= (+ (* (- 1) 1) (* 1 y ) ) 0) (>= (+ (* (- 2) 1) (* (- 1) x ) ) 0) (>= (+ (* 1 1) (* (- 1) x ) ) 0) (>= (+ (* (- 1) 1) (* (- 1) y ) (* 1 z ) ) 0) (>= (+ (* (- 1) 1) (* 1 flag ) ) 0) (>= (+ (* 1023 1) (* (- 1) z ) ) 0) (>= (+ (* 1 1) (* (- 1) flag ) ) 0) (>= (+ (* 1023 1) (* (- 1) x ) ) 0) (>= (+ (* 1024 1) (* 1 x ) ) 0) (>= (+ (* (- 1) 1) (* 1 c ) (* 1 flag ) ) 0) (>= (+ (* 1 c flag s_23 ) (* 1 c s_22 ) (* 1 c s_24 x ) (* 1 c s_25 y ) (* 1 c s_26 z ) (* 1 c c s_27 ) (* 1 flag s_28 ) (* 1 flag s_29 x ) (* 1 flag s_30 y ) (* 1 flag s_31 z ) (* 1 flag flag s_32 ) (* 1 s_21 ) (* 1 s_33 x ) (* 1 s_34 x y ) (* 1 s_35 x z ) (* 1 s_36 x x ) (* 1 s_37 y ) (* 1 s_38 y z ) (* 1 s_39 y y ) (* 1 s_40 z ) (* 1 s_41 z z ) ) 0) ) (>= (+ (* (- 1) 1) (* 1 c c_25 x y ) (* 1 c c_25 y ) (* (- 2) c c_27 ) (* (- 1) c_22 ) (* (- 1) c_23 flag ) (* (- 1) c_24 x ) (* 1 c_25 x y ) (* (- 1) c_26 z ) (* (- 1) c_27 ) (* 1 c_30 flag x y ) (* 1 c_30 flag y ) (* 1 c_34 x y ) (* 1 c_34 x x y ) (* 1 c_37 x y ) (* 1 c_37 y ) (* 1 c_38 x y z ) (* 1 c_38 y z ) (* (- 1) c_39 x x y y ) (* 1 c_39 y y ) ) 0) )))
(assert (forall ((flag Real) (c Real) (x Real) (y Real) (z Real) ) (=> (and (>= (* (- 1) y ) 0) (>= (+ (* 1 1) (* (- 1) x ) ) 0) (>= (+ (* (- 1) 1) (* (- 1) y ) (* 1 z ) ) 0) (>= (+ (* (- 1) 1) (* 1 flag ) ) 0) (>= (+ (* 1023 1) (* (- 1) z ) ) 0) (>= (+ (* 1 1) (* (- 1) flag ) ) 0) (>= (+ (* 1023 1) (* (- 1) x ) ) 0) (>= (+ (* 1024 1) (* 1 x ) ) 0) (>= (+ (* (- 1) 1) (* 1 c ) (* 1 flag ) ) 0) (>= (+ (* 1 c flag s_23 ) (* 1 c s_22 ) (* 1 c s_24 x ) (* 1 c s_25 y ) (* 1 c s_26 z ) (* 1 c c s_27 ) (* 1 flag s_28 ) (* 1 flag s_29 x ) (* 1 flag s_30 y ) (* 1 flag s_31 z ) (* 1 flag flag s_32 ) (* 1 s_21 ) (* 1 s_33 x ) (* 1 s_34 x y ) (* 1 s_35 x z ) (* 1 s_36 x x ) (* 1 s_37 y ) (* 1 s_38 y z ) (* 1 s_39 y y ) (* 1 s_40 z ) (* 1 s_41 z z ) ) 0) ) (>= (+ (* 1 c s_22 ) (* 1 c s_24 x ) (* 1 c s_25 y ) (* 1 c s_26 z ) (* 2 c s_27 ) (* 1 c c s_27 ) (* 1 s_21 ) (* 1 s_22 ) (* 1 s_24 x ) (* 1 s_25 y ) (* 1 s_26 z ) (* 1 s_27 ) (* 1 s_33 x ) (* 1 s_34 x y ) (* 1 s_35 x z ) (* 1 s_36 x x ) (* 1 s_37 y ) (* 1 s_38 y z ) (* 1 s_39 y y ) (* 1 s_40 z ) (* 1 s_41 z z ) ) 0) )))
(assert (forall ((flag Real) (c Real) (x Real) (y Real) (z Real) ) (=> (and (>= (* (- 1) y ) 0) (>= (+ (* 1 1) (* (- 1) x ) ) 0) (>= (+ (* (- 1) 1) (* (- 1) y ) (* 1 z ) ) 0) (>= (+ (* (- 1) 1) (* 1 flag ) ) 0) (>= (+ (* 1023 1) (* (- 1) z ) ) 0) (>= (+ (* 1 1) (* (- 1) flag ) ) 0) (>= (+ (* 1023 1) (* (- 1) x ) ) 0) (>= (+ (* 1024 1) (* 1 x ) ) 0) (>= (+ (* (- 1) 1) (* 1 c ) (* 1 flag ) ) 0) (>= (+ (* 1 c flag s_23 ) (* 1 c s_22 ) (* 1 c s_24 x ) (* 1 c s_25 y ) (* 1 c s_26 z ) (* 1 c c s_27 ) (* 1 flag s_28 ) (* 1 flag s_29 x ) (* 1 flag s_30 y ) (* 1 flag s_31 z ) (* 1 flag flag s_32 ) (* 1 s_21 ) (* 1 s_33 x ) (* 1 s_34 x y ) (* 1 s_35 x z ) (* 1 s_36 x x ) (* 1 s_37 y ) (* 1 s_38 y z ) (* 1 s_39 y y ) (* 1 s_40 z ) (* 1 s_41 z z ) ) 0) ) (>= (+ (* 1 c c_22 ) (* 1 c c_24 x ) (* 1 c c_25 y ) (* 1 c c_26 z ) (* 2 c c_27 ) (* 1 c c c_27 ) (* 1 c_21 ) (* 1 c_22 ) (* 1 c_24 x ) (* 1 c_25 y ) (* 1 c_26 z ) (* 1 c_27 ) (* 1 c_33 x ) (* 1 c_34 x y ) (* 1 c_35 x z ) (* 1 c_36 x x ) (* 1 c_37 y ) (* 1 c_38 y z ) (* 1 c_39 y y ) (* 1 c_40 z ) (* 1 c_41 z z ) ) 0) )))
(assert (forall ((flag Real) (c Real) (x Real) (y Real) (z Real) ) (=> (and (>= (* (- 1) y ) 0) (>= (+ (* 1 1) (* (- 1) x ) ) 0) (>= (+ (* (- 1) 1) (* (- 1) y ) (* 1 z ) ) 0) (>= (+ (* (- 1) 1) (* 1 flag ) ) 0) (>= (+ (* 1023 1) (* (- 1) z ) ) 0) (>= (+ (* 1 1) (* (- 1) flag ) ) 0) (>= (+ (* 1023 1) (* (- 1) x ) ) 0) (>= (+ (* 1024 1) (* 1 x ) ) 0) (>= (+ (* (- 1) 1) (* 1 c ) (* 1 flag ) ) 0) (>= (+ (* 1 c flag s_23 ) (* 1 c s_22 ) (* 1 c s_24 x ) (* 1 c s_25 y ) (* 1 c s_26 z ) (* 1 c c s_27 ) (* 1 flag s_28 ) (* 1 flag s_29 x ) (* 1 flag s_30 y ) (* 1 flag s_31 z ) (* 1 flag flag s_32 ) (* 1 s_21 ) (* 1 s_33 x ) (* 1 s_34 x y ) (* 1 s_35 x z ) (* 1 s_36 x x ) (* 1 s_37 y ) (* 1 s_38 y z ) (* 1 s_39 y y ) (* 1 s_40 z ) (* 1 s_41 z z ) ) 0) ) (>= (+ (* (- 1) 1) (* 1 c c_23 flag ) (* (- 2) c c_27 ) (* (- 1) c_22 ) (* (- 1) c_24 x ) (* (- 1) c_25 y ) (* (- 1) c_26 z ) (* (- 1) c_27 ) (* 1 c_28 flag ) (* 1 c_29 flag x ) (* 1 c_30 flag y ) (* 1 c_31 flag z ) (* 1 c_32 flag flag ) ) 0) )))
(assert (forall ((flag Real) (c Real) (x Real) (y Real) (z Real) ) (=> (and (>= (+ (* 1 1) (* 1 x ) ) 0) (>= (+ (* 1 1) (* (- 1) x ) ) 0) (>= (+ (* (- 1) 1) (* (- 1) y ) (* 1 z ) ) 0) (>= (+ (* (- 1) 1) (* 1 flag ) ) 0) (>= (+ (* 1023 1) (* (- 1) z ) ) 0) (>= (+ (* 1 1) (* (- 1) flag ) ) 0) (>= (+ (* 1023 1) (* (- 1) x ) ) 0) (>= (+ (* 1024 1) (* 1 x ) ) 0) (>= (+ (* (- 1) 1) (* 1 c ) (* 1 flag ) ) 0) (>= (+ (* 1 c flag s_23 ) (* 1 c s_22 ) (* 1 c s_24 x ) (* 1 c s_25 y ) (* 1 c s_26 z ) (* 1 c c s_27 ) (* 1 flag s_28 ) (* 1 flag s_29 x ) (* 1 flag s_30 y ) (* 1 flag s_31 z ) (* 1 flag flag s_32 ) (* 1 s_21 ) (* 1 s_33 x ) (* 1 s_34 x y ) (* 1 s_35 x z ) (* 1 s_36 x x ) (* 1 s_37 y ) (* 1 s_38 y z ) (* 1 s_39 y y ) (* 1 s_40 z ) (* 1 s_41 z z ) ) 0) ) (>= (+ (* 1 c s_22 ) (* 1 c s_24 x ) (* 1 c s_25 y ) (* 1 c s_26 z ) (* 2 c s_27 ) (* 1 c c s_27 ) (* 1 s_21 ) (* 1 s_22 ) (* 1 s_24 x ) (* 1 s_25 y ) (* 1 s_26 z ) (* 1 s_27 ) (* 1 s_33 x ) (* 1 s_34 x y ) (* 1 s_35 x z ) (* 1 s_36 x x ) (* 1 s_37 y ) (* 1 s_38 y z ) (* 1 s_39 y y ) (* 1 s_40 z ) (* 1 s_41 z z ) ) 0) )))
(assert (forall ((flag Real) (c Real) (x Real) (y Real) (z Real) ) (=> (and (>= (+ (* 1 1) (* 1 x ) ) 0) (>= (+ (* 1 1) (* (- 1) x ) ) 0) (>= (+ (* (- 1) 1) (* (- 1) y ) (* 1 z ) ) 0) (>= (+ (* (- 1) 1) (* 1 flag ) ) 0) (>= (+ (* 1023 1) (* (- 1) z ) ) 0) (>= (+ (* 1 1) (* (- 1) flag ) ) 0) (>= (+ (* 1023 1) (* (- 1) x ) ) 0) (>= (+ (* 1024 1) (* 1 x ) ) 0) (>= (+ (* (- 1) 1) (* 1 c ) (* 1 flag ) ) 0) (>= (+ (* 1 c flag s_23 ) (* 1 c s_22 ) (* 1 c s_24 x ) (* 1 c s_25 y ) (* 1 c s_26 z ) (* 1 c c s_27 ) (* 1 flag s_28 ) (* 1 flag s_29 x ) (* 1 flag s_30 y ) (* 1 flag s_31 z ) (* 1 flag flag s_32 ) (* 1 s_21 ) (* 1 s_33 x ) (* 1 s_34 x y ) (* 1 s_35 x z ) (* 1 s_36 x x ) (* 1 s_37 y ) (* 1 s_38 y z ) (* 1 s_39 y y ) (* 1 s_40 z ) (* 1 s_41 z z ) ) 0) ) (>= (+ (* 1 c c_22 ) (* 1 c c_24 x ) (* 1 c c_25 y ) (* 1 c c_26 z ) (* 2 c c_27 ) (* 1 c c c_27 ) (* 1 c_21 ) (* 1 c_22 ) (* 1 c_24 x ) (* 1 c_25 y ) (* 1 c_26 z ) (* 1 c_27 ) (* 1 c_33 x ) (* 1 c_34 x y ) (* 1 c_35 x z ) (* 1 c_36 x x ) (* 1 c_37 y ) (* 1 c_38 y z ) (* 1 c_39 y y ) (* 1 c_40 z ) (* 1 c_41 z z ) ) 0) )))
(assert (forall ((flag Real) (c Real) (x Real) (y Real) (z Real) ) (=> (and (>= (+ (* 1 1) (* 1 x ) ) 0) (>= (+ (* 1 1) (* (- 1) x ) ) 0) (>= (+ (* (- 1) 1) (* (- 1) y ) (* 1 z ) ) 0) (>= (+ (* (- 1) 1) (* 1 flag ) ) 0) (>= (+ (* 1023 1) (* (- 1) z ) ) 0) (>= (+ (* 1 1) (* (- 1) flag ) ) 0) (>= (+ (* 1023 1) (* (- 1) x ) ) 0) (>= (+ (* 1024 1) (* 1 x ) ) 0) (>= (+ (* (- 1) 1) (* 1 c ) (* 1 flag ) ) 0) (>= (+ (* 1 c flag s_23 ) (* 1 c s_22 ) (* 1 c s_24 x ) (* 1 c s_25 y ) (* 1 c s_26 z ) (* 1 c c s_27 ) (* 1 flag s_28 ) (* 1 flag s_29 x ) (* 1 flag s_30 y ) (* 1 flag s_31 z ) (* 1 flag flag s_32 ) (* 1 s_21 ) (* 1 s_33 x ) (* 1 s_34 x y ) (* 1 s_35 x z ) (* 1 s_36 x x ) (* 1 s_37 y ) (* 1 s_38 y z ) (* 1 s_39 y y ) (* 1 s_40 z ) (* 1 s_41 z z ) ) 0) ) (>= (+ (* (- 1) 1) (* 1 c c_23 flag ) (* (- 2) c c_27 ) (* (- 1) c_22 ) (* (- 1) c_24 x ) (* (- 1) c_25 y ) (* (- 1) c_26 z ) (* (- 1) c_27 ) (* 1 c_28 flag ) (* 1 c_29 flag x ) (* 1 c_30 flag y ) (* 1 c_31 flag z ) (* 1 c_32 flag flag ) ) 0) )))
(assert (forall ((flag Real) (c Real) (x Real) (y Real) (z Real) ) (=> (and (>= (+ (* 1 y ) (* (- 1) z ) ) 0) (>= (+ (* 1023 1) (* (- 1) z ) ) 0) (>= (+ (* 1 1) (* (- 1) flag ) ) 0) (>= (+ (* 1023 1) (* (- 1) x ) ) 0) (>= (+ (* 1024 1) (* 1 x ) ) 0) (>= (+ (* (- 1) 1) (* 1 c ) (* 1 flag ) ) 0) (>= (+ (* 1 c flag s_23 ) (* 1 c s_22 ) (* 1 c s_24 x ) (* 1 c s_25 y ) (* 1 c s_26 z ) (* 1 c c s_27 ) (* 1 flag s_28 ) (* 1 flag s_29 x ) (* 1 flag s_30 y ) (* 1 flag s_31 z ) (* 1 flag flag s_32 ) (* 1 s_21 ) (* 1 s_33 x ) (* 1 s_34 x y ) (* 1 s_35 x z ) (* 1 s_36 x x ) (* 1 s_37 y ) (* 1 s_38 y z ) (* 1 s_39 y y ) (* 1 s_40 z ) (* 1 s_41 z z ) ) 0) ) (>= (+ (* 1 c flag s_44 ) (* 1 c s_43 ) (* 1 c s_45 x ) (* 1 c s_46 y ) (* 1 c s_47 z ) (* 1 c c s_48 ) (* 1 flag s_49 ) (* 1 flag s_50 x ) (* 1 flag s_51 y ) (* 1 flag s_52 z ) (* 1 flag flag s_53 ) (* 1 s_42 ) (* 1 s_54 x ) (* 1 s_55 x y ) (* 1 s_56 x z ) (* 1 s_57 x x ) (* 1 s_58 y ) (* 1 s_59 y z ) (* 1 s_60 y y ) (* 1 s_61 z ) (* 1 s_62 z z ) ) 0) )))
(assert (forall ((flag Real) (c Real) (x Real) (y Real) (z Real) ) (=> (and (>= (+ (* 1 y ) (* (- 1) z ) ) 0) (>= (+ (* 1023 1) (* (- 1) z ) ) 0) (>= (+ (* 1 1) (* (- 1) flag ) ) 0) (>= (+ (* 1023 1) (* (- 1) x ) ) 0) (>= (+ (* 1024 1) (* 1 x ) ) 0) (>= (+ (* (- 1) 1) (* 1 c ) (* 1 flag ) ) 0) (>= (+ (* 1 c flag s_23 ) (* 1 c s_22 ) (* 1 c s_24 x ) (* 1 c s_25 y ) (* 1 c s_26 z ) (* 1 c c s_27 ) (* 1 flag s_28 ) (* 1 flag s_29 x ) (* 1 flag s_30 y ) (* 1 flag s_31 z ) (* 1 flag flag s_32 ) (* 1 s_21 ) (* 1 s_33 x ) (* 1 s_34 x y ) (* 1 s_35 x z ) (* 1 s_36 x x ) (* 1 s_37 y ) (* 1 s_38 y z ) (* 1 s_39 y y ) (* 1 s_40 z ) (* 1 s_41 z z ) ) 0) ) (>= (+ (* 1 c c_43 ) (* 1 c c_44 flag ) (* 1 c c_45 x ) (* 1 c c_46 y ) (* 1 c c_47 z ) (* 1 c c c_48 ) (* 1 c_42 ) (* 1 c_49 flag ) (* 1 c_50 flag x ) (* 1 c_51 flag y ) (* 1 c_52 flag z ) (* 1 c_53 flag flag ) (* 1 c_54 x ) (* 1 c_55 x y ) (* 1 c_56 x z ) (* 1 c_57 x x ) (* 1 c_58 y ) (* 1 c_59 y z ) (* 1 c_60 y y ) (* 1 c_61 z ) (* 1 c_62 z z ) ) 0) )))
(assert (forall ((flag Real) (c Real) (x Real) (y Real) (z Real) ) (=> (and (>= (* (- 1) flag ) 0) (>= (+ (* 1023 1) (* (- 1) z ) ) 0) (>= (+ (* 1 1) (* (- 1) flag ) ) 0) (>= (+ (* 1023 1) (* (- 1) x ) ) 0) (>= (+ (* 1024 1) (* 1 x ) ) 0) (>= (+ (* (- 1) 1) (* 1 c ) (* 1 flag ) ) 0) (>= (+ (* 1 c flag s_23 ) (* 1 c s_22 ) (* 1 c s_24 x ) (* 1 c s_25 y ) (* 1 c s_26 z ) (* 1 c c s_27 ) (* 1 flag s_28 ) (* 1 flag s_29 x ) (* 1 flag s_30 y ) (* 1 flag s_31 z ) (* 1 flag flag s_32 ) (* 1 s_21 ) (* 1 s_33 x ) (* 1 s_34 x y ) (* 1 s_35 x z ) (* 1 s_36 x x ) (* 1 s_37 y ) (* 1 s_38 y z ) (* 1 s_39 y y ) (* 1 s_40 z ) (* 1 s_41 z z ) ) 0) ) (>= (+ (* 1 c flag s_44 ) (* 1 c s_43 ) (* 1 c s_45 x ) (* 1 c s_46 y ) (* 1 c s_47 z ) (* 1 c c s_48 ) (* 1 flag s_49 ) (* 1 flag s_50 x ) (* 1 flag s_51 y ) (* 1 flag s_52 z ) (* 1 flag flag s_53 ) (* 1 s_42 ) (* 1 s_54 x ) (* 1 s_55 x y ) (* 1 s_56 x z ) (* 1 s_57 x x ) (* 1 s_58 y ) (* 1 s_59 y z ) (* 1 s_60 y y ) (* 1 s_61 z ) (* 1 s_62 z z ) ) 0) )))
(assert (forall ((flag Real) (c Real) (x Real) (y Real) (z Real) ) (=> (and (>= (* (- 1) flag ) 0) (>= (+ (* 1023 1) (* (- 1) z ) ) 0) (>= (+ (* 1 1) (* (- 1) flag ) ) 0) (>= (+ (* 1023 1) (* (- 1) x ) ) 0) (>= (+ (* 1024 1) (* 1 x ) ) 0) (>= (+ (* (- 1) 1) (* 1 c ) (* 1 flag ) ) 0) (>= (+ (* 1 c flag s_23 ) (* 1 c s_22 ) (* 1 c s_24 x ) (* 1 c s_25 y ) (* 1 c s_26 z ) (* 1 c c s_27 ) (* 1 flag s_28 ) (* 1 flag s_29 x ) (* 1 flag s_30 y ) (* 1 flag s_31 z ) (* 1 flag flag s_32 ) (* 1 s_21 ) (* 1 s_33 x ) (* 1 s_34 x y ) (* 1 s_35 x z ) (* 1 s_36 x x ) (* 1 s_37 y ) (* 1 s_38 y z ) (* 1 s_39 y y ) (* 1 s_40 z ) (* 1 s_41 z z ) ) 0) ) (>= (+ (* 1 c c_43 ) (* 1 c c_44 flag ) (* 1 c c_45 x ) (* 1 c c_46 y ) (* 1 c c_47 z ) (* 1 c c c_48 ) (* 1 c_42 ) (* 1 c_49 flag ) (* 1 c_50 flag x ) (* 1 c_51 flag y ) (* 1 c_52 flag z ) (* 1 c_53 flag flag ) (* 1 c_54 x ) (* 1 c_55 x y ) (* 1 c_56 x z ) (* 1 c_57 x x ) (* 1 c_58 y ) (* 1 c_59 y z ) (* 1 c_60 y y ) (* 1 c_61 z ) (* 1 c_62 z z ) ) 0) )))

(check-sat)
(get-model)
